0 66 
1 66 
2 64 
3 71 
4 69 
5 68 
6 68 
7 69 
8 69 
9 67 
10 67 
11 65 
12 64 
13 59 
14 58 
15 56 
16 53 
17 51 
18 47 
19 47 
20 49 
21 49 
22 48 
23 44 
24 45 
25 46 
26 46 
27 45 
28 39 
29 37 
30 36 
31 36 
32 34 
33 31 
34 28 
35 24 
36 24 
37 23 
38 23 
39 21 
40 21 
41 19 
42 16 
43 12 
44 8 
45 8 
46 6 
47 6 
48 4 
49 4 
50 3 
51 2 
52 3 
53 4 
54 3 
55 2 
56 0 
57 0 

